 vasp.5.4.4.18Apr17-6-g9f103f2a35 (build Apr 27 2017 19:33:31) gamma-only

 executed on       CrayXC-Intel16 date 2019.09.10  02:21:16

 INCAR:
 POTCAR:    PAW_PBE Li 17Jan2003
 POTCAR:    PAW_PBE I 08Apr2002
 POTCAR:    PAW_PBE S 06Sep2000
 POTCAR:    PAW_PBE P 06Sep2000

 POTCAR:    PAW_PBE Li 17Jan2003
   VRHFIN =Li: s1p0

   TITEL  = PAW_PBE Li 17Jan2003
   POMASS =    7.010; ZVAL   =    1.000    mass and valenz
   ENMAX  =  140.000; ENMIN  =  100.000 eV

 POTCAR:    PAW_PBE I 08Apr2002
   VRHFIN =I : s2p5

   TITEL  = PAW_PBE I 08Apr2002
   POMASS =  126.904; ZVAL   =    7.000    mass and valenz
   ENMAX  =  175.647; ENMIN  =  131.735 eV

 POTCAR:    PAW_PBE S 06Sep2000
   VRHFIN =S : s2p4

   TITEL  = PAW_PBE S 06Sep2000
   POMASS =   32.066; ZVAL   =    6.000    mass and valenz
   ENMAX  =  258.689; ENMIN  =  194.016 eV

 POTCAR:    PAW_PBE P 06Sep2000
   VRHFIN =P : s2p3

   TITEL  = PAW_PBE P 06Sep2000
   POMASS =   30.974; ZVAL   =    5.000    mass and valenz
   ENMAX  =  255.040; ENMIN  =  191.280 eV

 Optimization of the real space projectors (new method)

 maximal supplied QI-value         = 18.33
 optimisation between [QCUT,QGAM] = [  8.43, 17.05] = [ 19.91, 81.38] Ry
 Optimized for a Real-space Cutoff    1.60 Angstroem

   l    n(q)    QCUT    max X(q) W(low)/X(q) W(high)/X(q)  e(spline)
   0      8     8.432    33.825    0.85E-04    0.69E-04    0.12E-06
   0      8     8.432     8.944    0.64E-04    0.57E-04    0.91E-07
   1      8     8.432     4.214    0.51E-04    0.11E-03    0.64E-07
 Optimization of the real space projectors (new method)

[...]

   l    n(q)    QCUT    max X(q) W(low)/X(q) W(high)/X(q)  e(spline)
   0      9     8.532   187.594    0.67E-04    0.16E-04    0.31E-06
   0      9     8.532   164.243    0.66E-04    0.15E-04    0.31E-06
   1      8     8.532    67.533    0.89E-04    0.21E-03    0.25E-06
   1      8     8.532    50.729    0.87E-04    0.20E-03    0.25E-06
 Optimization of the real space projectors (new method)

 maximal supplied QI-value         = 19.84
 optimisation between [QCUT,QGAM] = [  8.53, 17.06] = [ 20.39, 81.54] Ry
 Optimized for a Real-space Cutoff    1.75 Angstroem

   l    n(q)    QCUT    max X(q) W(low)/X(q) W(high)/X(q)  e(spline)
   0      9     8.532   160.924    0.60E-04    0.18E-04    0.30E-06
   0      9     8.532   130.086    0.59E-04    0.18E-04    0.30E-06
   1      8     8.532    74.434    0.88E-04    0.20E-03    0.24E-06
   1      8     8.532    49.120    0.85E-04    0.20E-03    0.24E-06

  PAW_PBE Li 17Jan2003                  :
  PAW_PBE I 08Apr2002                   :
  PAW_PBE S 06Sep2000                   :
  PAW_PBE P 06Sep2000                   :

 POSCAR: Li192 P32 S160 I32
  positions in direct lattice
  velocities in cartesian coordinates
 exchange correlation table for  LEXCH =       14
   RHO(1)=    0.500       N(1)  =     2000
   RHO(2)=  100.500       N(2)  =     4000

 ion  position               nearest neighbor table
   1  0.089  0.158  0.257- 328 2.43 312 2.46 217 2.75 204 2.75
   2  0.326  0.260  0.909- 233 2.40 337 2.52 381 2.53 242 2.70  42 2.85  26 2.90
   3  0.243  0.674  0.407- 338 2.48 236 2.51 274 2.53 259 2.60  64 2.68  19 3.03 143 3.27
   4  0.169  0.504  0.832- 228 2.38 350 2.50 301 2.53 194 2.89 162 3.22
   5  0.382  0.092  1.000- 258 2.40 242 2.56 197 2.77 213 2.84 113 3.16  57 3.21
   6  0.589  0.170  0.762- 317 2.45 333 2.46 222 2.70 205 2.74  96 2.87
   7  0.996  0.399  0.905- 366 2.42 301 2.52 196 2.76 211 2.87
   8  0.663  0.490  0.829- 305 2.51 232 2.52 354 2.53  48 2.84 202 2.89  70 3.28 173 3.30
   9  0.398  0.401  0.499- 374 2.49 358 2.56 198 2.72 216 2.77
  10  0.011  0.141  0.856- 273 2.45 246 2.46 325 2.54  18 2.94 218 2.97  34 3.25
  11  0.303  0.618  0.218- 227 2.38 345 2.39 338 2.42 314 2.63 139 2.74 395 2.98  35 2.99  50 3.20
                           153 3.25
  12  0.232  0.363  0.516- 234 2.39 374 2.48 349 2.50 201 3.09 388 3.11 130 3.19
  13  0.382  0.208  0.238- 336 2.40 292 2.56 221 2.72 197 2.86 393 2.97
  14  0.894  0.107  0.018- 346 2.37 262 2.51 246 2.51 182 2.94 209 2.98 101 3.25 174 3.26
  15  0.516  0.380  0.610- 310 2.44 277 2.49 358 2.57  47 3.01 190 3.07 216 3.08
  16  0.680  0.803  0.439- 240 2.35 371 2.54 290 2.55 355 2.79 144 3.15 102 3.20  72 3.24 159 3.24
                           151 3.27
  17  0.322  0.993  0.160- 225 2.44 375 2.51 278 2.56 197 2.82  68 2.94 137 3.20
  18  0.122  0.200  0.786- 273 2.41 313 2.43 285 2.54 218 2.71 129 2.90 394 2.91  10 2.94 156 3.11

  19  0.232  0.534  0.360- 227 2.43 259 2.49 349 2.49 274 2.71  50 2.83  27 2.96 388 3.02   3 3.03
                           153 3.20
  20  0.117  0.530  0.992- 251 2.38 350 2.43 211 2.70 387 2.92 194 2.98
  21  0.511  0.111  0.379- 320 2.42 275 2.47 241 2.54 134 2.94 214 3.09  45 3.15
  22  0.610  0.099  0.013- 253 2.41 269 2.59 205 2.77 213 2.82  57 3.17 113 3.22
  23  0.839  0.658  0.524- 348 2.41 240 2.48 263 2.58 247 2.69 144 2.92 160 3.06
  24  0.473  0.044  0.621- 333 2.43 279 2.49 344 2.51 214 2.80  98 2.90 406 2.95  58 3.05 177 3.14

  25  0.006  0.102  0.421- 245 2.44 324 2.52 204 2.73 210 2.84
  26  0.460  0.291  0.876- 370 2.39 381 2.41 242 2.53 222 2.75 413 2.88   2 2.90 178 2.95 186 3.07

[...]

 148  0.137  0.731  0.988- 235 2.35 267 2.44 368 2.44 194 3.01 411 3.01  67 3.05 171 3.23
 149  0.681  0.587  0.246- 231 2.39 318 2.49 334 2.61 199 2.93  93 3.01 111 3.11  88 3.16
 150  0.318  0.249  0.085- 233 2.37 357 2.52 292 2.56 197 2.83 185 3.15
 151  0.832  0.833  0.477- 384 2.44 240 2.55 364 2.60 380 2.61  16 3.27 191 3.27
 152  0.826  0.834  0.030- 239 2.38 379 2.45 363 2.51  32 2.99 203 3.10  95 3.25
 153  0.369  0.495  0.294- 227 2.42 322 2.46 276 2.59 198 2.86 139 3.04  85 3.04 407 3.04  19 3.20
                            11 3.25
 154  0.222  0.140  0.968- 233 2.37 258 2.42 249 2.51 273 2.61 129 2.72  34 2.87 385 3.03 156 3.14

[...]

 160  0.890  0.740  0.639- 348 2.38 364 2.45 299 2.48 112 2.86 220 3.04  23 3.06
 161  0.987  0.367  0.365- 383 2.36 300 2.44 365 2.48 181 2.84 217 3.19 165 3.21  74 3.28
 162  0.324  0.477  0.845- 228 2.50 381 2.52 260 2.61 323 2.80 186 3.15 178 3.21   4 3.22
 163  0.395  0.767  0.347- 382 2.38 338 2.41 243 2.49 105 2.81 223 2.85 179 3.30
 164  0.501  0.601  0.899- 244 2.49 323 2.52 202 2.70 215 2.83 131 3.21
 165  0.895  0.491  0.392- 383 2.38 326 2.48 263 2.53 212 2.90  74 2.93 157 3.20 161 3.21
 166  0.996  0.605  0.912- 248 2.41 327 2.43 194 2.74 211 2.84 119 3.22
 167  0.373  0.780  0.779- 295 2.41 339 2.42 224 2.67 208 2.74 396 2.90
 168  0.662  0.776  0.099- 311 2.40 239 2.53 318 2.60 271 2.65  99 3.09  79 3.12 175 3.23
 169  0.164  0.254  0.417- 234 2.43 365 2.49 284 2.52 204 2.87  41 3.02
 170  0.404  0.396  0.997- 381 2.43 357 2.48 373 2.48 186 2.84 215 2.91  42 3.05
 171  0.235  0.835  0.920- 235 2.38 352 2.45 287 2.59 208 2.89 107 3.10 148 3.23
 172  0.397  0.740  0.151- 345 2.37 294 2.47 359 2.53 223 2.87 115 3.03  35 3.23
 173  0.735  0.388  0.726- 232 2.44 297 2.45 289 2.55  70 2.83 310 2.90 190 3.00 398 3.01  94 3.04
                             8 3.30
 174  0.899  0.994  0.906- 262 2.48 325 2.50 203 2.70 209 2.78  14 3.26
 175  0.736  0.901  0.163- 311 2.38 298 2.45 229 2.54 379 2.55  63 2.61 109 3.06 141 3.08 180 3.20
                           168 3.23
 176  0.734  0.963  0.638- 230 2.39 380 2.41 254 2.58 195 2.82  96 2.91 390 3.05 135 3.05
 177  0.462  0.197  0.628- 344 2.40 270 2.41 358 2.55 222 2.77 106 2.95 414 2.96 122 2.97  24 3.14

[...]

 408  0.502  0.487  0.749- 335 2.02 305 2.06 277 2.07 323 2.09 108 2.92 186 2.97
 409  0.005  0.251  1.000- 366 2.03 265 2.06 361 2.07 246 2.08  38 2.99 117 3.00
 410  0.003  0.250  0.501- 266 2.04 245 2.06 362 2.06 365 2.07  82 2.95 110 3.08
 411  0.993  0.752  0.013- 363 2.04 368 2.06 267 2.06 248 2.07 148 3.01
 412  0.991  0.746  0.494- 247 2.04 364 2.05 367 2.06 268 2.07
 413  0.489  0.250  0.007- 370 2.03 357 2.06 242 2.07 269 2.08  26 2.88  89 2.98  97 3.09
 414  0.494  0.247  0.496- 369 2.03 241 2.06 270 2.06 358 2.09 177 2.96  62 3.06
 415  0.508  0.754  0.006- 271 2.04 359 2.06 372 2.07 244 2.07 107 3.10
 416  0.499  0.758  0.495- 272 2.03 371 2.06 360 2.07 243 2.08  69 2.93 179 3.02

IMPORTANT INFORMATION: All symmetrisations will be switched off!
NOSYMM: (Re-)initialisation of all symmetry stuff for point group C_1.

 KPOINTS: Title

Automatic generation of k-mesh.
Space group operators:
 irot       det(A)        alpha          n_x          n_y          n_z        tau_x        tau_y        tau_z
    1     1.000000     0.000000     1.000000     0.000000     0.000000     0.000000     0.000000     0.000000

 Subroutine IBZKPT returns following result:

 Found      1 irreducible k-points:

 Following reciprocal coordinates:
            Coordinates               Weight
  0.000000  0.000000  0.000000      1.000000

 Following cartesian coordinates:
            Coordinates               Weight
  0.000000  0.000000  0.000000      1.000000

 SYSTEM =  LTO
 POSCAR =  Li192 P32 S160 I32

 Startparameter for this run:
   NWRITE =      2    write-flag & timer
   PREC   = normal    normal or accurate (medium, high low for compatibility)
   ISTART =      0    job   : 0-new  1-cont  2-samecut
   ICHARG =      2    charge: 1-file 2-atom 10-const
   ISPIN  =      1    spin polarized calculation?
   LNONCOLLINEAR =      F non collinear calculations
   LSORBIT =      F    spin-orbit coupling
   INIWAV =      1    electr: 0-lowe 1-rand  2-diag
   LASPH  =      T    aspherical Exc in radial PAW
   METAGGA=      F    non-selfconsistent MetaGGA calc.

 Electronic Relaxation 1
   ENCUT  =  280.0 eV  20.58 Ry    4.54 a.u.  27.88 27.88 27.88*2*pi/ulx,y,z
   ENINI  =  280.0     initial cutoff
   ENAUG  =  370.1 eV  augmentation charge cutoff
   NELM   =     60;   NELMIN=  4; NELMDL=  0     # of ELM steps
   EDIFF  = 0.1E-03   stopping-criterion for ELM
   LREAL  =      T    real-space projection
   NLSPLINE    = F    spline interpolate recip. space projectors
   LCOMPAT=      F    compatible to vasp.4.4
   GGA_COMPAT  = T    GGA compatible to vasp.4.4-vasp.4.6
   LMAXPAW     = -100 max onsite density
   LMAXMIX     =    4 max onsite mixed and CHGCAR
   VOSKOWN=      0    Vosko Wilk Nusair interpolation
   ROPT   =   -0.00010  -0.00010  -0.00010  -0.00010
 Ionic relaxation
   EDIFFG = -.5E-01   stopping-criterion for IOM
   NSW    =   1000    number of steps for IOM
   NBLOCK =      1;   KBLOCK =   1000    inner block; outer block
   IBRION =      2    ionic relax: 0-MD 1-quasi-New 2-CG
   NFREE  =      1    steps in history (QN), initial steepest desc. (CG)
   ISIF   =      2    stress and relaxation
   IWAVPR =     11    prediction:  0-non 1-charg 2-wave 3-comb
   ISYM   =      0    0-nonsym 1-usesym 2-fastsym
   LCORR  =      T    Harris-Foulkes like correction to forces

   POTIM  = 0.5000    time-step for ionic-motion
   TEIN   =    0.0    initial temperature
   TEBEG  =    0.0;   TEEND  =   0.0 temperature during run
   SMASS  =  -3.00    Nose mass-parameter (am)
   estimated Nose-frequenzy (Omega)   =  0.10E-29 period in steps =****** mass=  -0.954E-26a.u.
   SCALEE = 1.0000    scale energy and forces
   NPACO  =    256;   APACO  = 16.0  distance and # of slots for P.C.
[...]
   -.264E+01 0.297E+01 -.435E+01   0.240E+01 -.270E+01 0.397E+01   0.248E+00 -.279E+00 0.380E+00   -.716E-04 0.109E-03 -.379E-04
   -.239E+01 -.624E+00 0.102E+02   0.212E+01 0.110E+01 -.965E+01   0.271E+00 -.480E+00 -.589E+00   0.175E-04 -.633E-04 0.469E-03
   0.454E+01 0.201E+01 -.387E+01   -.402E+01 -.174E+01 0.371E+01   -.519E+00 -.271E+00 0.158E+00   -.530E-05 0.136E-03 -.838E-04
   0.186E+01 0.123E+01 -.679E+00   -.164E+01 -.627E+00 0.374E+00   -.217E+00 -.606E+00 0.302E+00   -.383E-03 0.496E-03 -.307E-03
   -.419E+00 0.587E+01 0.210E+00   0.502E+00 -.616E+01 -.465E+00   -.831E-01 0.289E+00 0.255E+00   -.453E-04 -.282E-03 0.139E-03
   0.326E+00 -.450E+00 0.600E+00   -.604E+00 0.144E+00 -.427E+00   0.277E+00 0.309E+00 -.175E+00   -.592E-05 0.429E-04 -.401E-03
   0.341E+01 0.877E+01 -.353E+01   -.323E+01 -.844E+01 0.338E+01   -.179E+00 -.333E+00 0.158E+00   -.970E-04 0.355E-03 -.139E-03
   0.226E+01 -.880E+00 0.113E+00   -.255E+01 0.878E+00 0.282E+00   0.284E+00 0.198E-02 -.390E+00   0.196E-03 -.153E-03 0.541E-03
   -.138E+01 -.446E+01 -.583E+00   0.150E+01 0.424E+01 0.843E-01   -.117E+00 0.228E+00 0.501E+00   -.219E-03 0.115E-03 -.385E-03
   0.446E+01 0.329E+01 0.944E+00   -.417E+01 -.302E+01 -.103E+01   -.286E+00 -.263E+00 0.871E-01   0.968E-04 0.150E-03 -.890E-04
   -.123E+01 -.219E+01 0.322E+01   0.153E+01 0.219E+01 -.348E+01   -.304E+00 0.965E-02 0.261E+00   0.183E-03 0.135E-03 -.307E-04
   0.126E+01 -.134E+01 0.278E+01   -.121E+01 0.150E+01 -.257E+01   -.483E-01 -.162E+00 -.194E+00   0.379E-04 0.275E-03 0.719E-04
   -.150E+01 -.203E+01 0.185E+01   0.136E+01 0.213E+01 -.175E+01   0.143E+00 -.106E+00 -.951E-01   0.885E-04 -.469E-04 -.113E-03
   0.936E+01 -.605E+00 0.446E+01   -.955E+01 0.491E+00 -.402E+01   0.182E+00 0.113E+00 -.442E+00   0.167E-03 0.252E-04 0.281E-04
   0.187E+00 -.204E+01 -.127E+01   -.616E+00 0.184E+01 0.102E+01   0.430E+00 0.207E+00 0.251E+00   -.539E-03 0.151E-03 -.249E-03
   0.252E+01 0.261E+01 0.338E+01   -.248E+01 -.227E+01 -.297E+01   -.342E-01 -.345E+00 -.409E+00   0.155E-03 -.461E-04 0.138E-03
   0.336E+01 -.784E+01 0.870E+00   -.303E+01 0.823E+01 -.785E+00   -.327E+00 -.390E+00 -.838E-01   -.138E-03 0.168E-03 -.102E-03
   0.922E+00 0.624E+01 0.131E+01   -.120E+01 -.666E+01 -.111E+01   0.275E+00 0.418E+00 -.193E+00   0.325E-03 -.267E-03 0.680E-05
   -.228E+01 0.265E+00 -.103E+00   0.227E+01 -.551E+00 0.521E-01   0.839E-02 0.277E+00 0.579E-01   0.155E-03 -.268E-04 -.148E-03
   -.360E+01 0.189E+01 -.191E+01   0.332E+01 -.204E+01 0.145E+01   0.281E+00 0.146E+00 0.454E+00   -.224E-04 -.208E-03 -.172E-03
   0.359E+01 -.496E+01 0.300E+01   -.332E+01 0.458E+01 -.260E+01   -.280E+00 0.382E+00 -.411E+00   -.102E-03 -.301E-03 0.325E-03
   -.337E+01 -.517E+01 -.461E-03   0.309E+01 0.499E+01 0.548E-01   0.279E+00 0.177E+00 -.520E-01   0.481E-04 0.227E-03 -.138E-03
   0.135E+02 -.754E+00 0.152E+01   -.130E+02 0.336E+00 -.111E+01   -.520E+00 0.419E+00 -.409E+00   -.172E-04 -.190E-03 0.266E-03
   0.385E+01 0.339E+01 0.114E+01   -.359E+01 -.346E+01 -.137E+01   -.257E+00 0.675E-01 0.224E+00   0.196E-03 -.141E-03 -.904E-04
   -.449E+01 0.676E+01 0.849E+00   0.440E+01 -.728E+01 -.454E+00   0.103E+00 0.521E+00 -.389E+00   -.287E-04 0.195E-03 -.155E-03
   -.126E+01 0.484E+01 0.877E-01   0.104E+01 -.454E+01 0.208E+00   0.218E+00 -.299E+00 -.294E+00   -.159E-03 -.470E-05 0.292E-03
   0.294E+01 -.221E+01 -.608E+01   -.284E+01 0.193E+01 0.555E+01   -.104E+00 0.284E+00 0.526E+00   -.887E-04 -.106E-03 -.160E-04
   0.107E+01 0.303E+00 -.349E+01   -.104E+01 -.167E-01 0.309E+01   -.293E-01 -.289E+00 0.395E+00   0.730E-04 0.237E-03 -.624E-04
   -.181E+01 0.415E+01 0.339E+01   0.162E+01 -.356E+01 -.301E+01   0.185E+00 -.591E+00 -.381E+00   -.120E-03 0.629E-03 0.967E-04
   0.572E+00 -.285E+01 -.415E+01   -.708E+00 0.299E+01 0.426E+01   0.136E+00 -.133E+00 -.109E+00   -.111E-03 -.128E-03 0.459E-04
   -.390E+00 -.503E+00 -.146E+02   0.144E+00 0.344E+00 0.140E+02   0.246E+00 0.162E+00 0.606E+00   -.269E-03 0.844E-04 -.310E-03
   -.351E+00 -.236E+01 -.535E+01   -.975E-01 0.261E+01 0.491E+01   0.447E+00 -.244E+00 0.447E+00   0.529E-04 0.274E-03 -.177E-03
   -.498E+01 0.496E+00 -.320E+01   0.458E+01 -.650E+00 0.293E+01   0.402E+00 0.151E+00 0.276E+00   -.555E-04 0.862E-04 -.457E-04
   -.140E+01 0.430E+00 0.318E+00   0.114E+01 -.263E+00 0.554E-01   0.262E+00 -.164E+00 -.378E+00   0.215E-03 0.669E-04 0.352E-03
   -.194E+01 -.255E+01 -.117E+01   0.171E+01 0.214E+01 0.107E+01   0.227E+00 0.409E+00 0.105E+00   -.231E-03 -.355E-03 0.503E-04
   -.271E+01 -.691E+01 -.332E+01   0.260E+01 0.740E+01 0.281E+01   0.108E+00 -.496E+00 0.503E+00   0.691E-04 -.220E-03 -.986E-04
[...]
   -.407E+01 0.769E+01 0.616E+01   0.416E+01 -.770E+01 -.630E+01   -.869E-01 0.106E-01 0.142E+00   -.147E-02 0.109E-02 0.430E-03
   -.684E+01 0.344E+01 -.187E+01   0.638E+01 -.411E+01 0.148E+01   0.463E+00 0.671E+00 0.395E+00   -.170E-02 0.153E-03 -.612E-03
   0.391E+01 -.441E+01 0.810E+01   -.505E+01 0.474E+01 -.747E+01   0.114E+01 -.332E+00 -.628E+00   0.110E-02 -.104E-02 0.515E-03
   -.693E+01 0.180E+02 -.969E+01   0.684E+01 -.194E+02 0.929E+01   0.835E-01 0.139E+01 0.399E+00   -.122E-02 0.940E-03 -.157E-02
   0.216E+01 0.650E+01 0.126E+02   -.305E+01 -.719E+01 -.119E+02   0.881E+00 0.692E+00 -.687E+00   -.171E-02 0.285E-03 0.199E-02
   -.289E+01 -.115E+02 0.180E+01   0.404E+01 0.121E+02 -.296E+01   -.115E+01 -.644E+00 0.116E+01   0.322E-03 -.738E-03 -.303E-03
   -.189E+00 -.716E+01 0.910E+01   0.103E+01 0.781E+01 -.920E+01   -.846E+00 -.644E+00 0.992E-01   -.254E-03 -.171E-02 0.645E-04
   -.431E+01 0.737E+00 -.685E+01   0.435E+01 -.131E+01 0.723E+01   -.360E-01 0.577E+00 -.387E+00   -.151E-02 0.132E-02 -.372E-03
   0.368E+01 -.382E+00 0.763E+01   -.354E+01 0.868E+00 -.727E+01   -.142E+00 -.486E+00 -.360E+00   0.777E-03 -.631E-03 0.255E-02
   -.122E+01 0.322E+01 -.610E+01   0.473E+00 -.339E+01 0.569E+01   0.752E+00 0.168E+00 0.404E+00   -.156E-03 0.720E-03 -.191E-03
   -.529E+01 0.557E+01 -.245E+01   0.582E+01 -.389E+01 0.195E+01   -.532E+00 -.169E+01 0.501E+00   -.438E-03 0.121E-02 -.115E-02
   0.554E+01 -.104E+02 0.114E+02   -.452E+01 0.107E+02 -.123E+02   -.101E+01 -.307E+00 0.935E+00   0.186E-02 -.900E-03 0.111E-02
   -.897E+00 0.181E+01 0.151E+02   0.102E+01 -.198E+01 -.143E+02   -.126E+00 0.171E+00 -.821E+00   -.659E-03 0.670E-03 0.196E-02
   -.907E+01 0.172E+02 -.582E+01   0.972E+01 -.176E+02 0.685E+01   -.650E+00 0.336E+00 -.103E+01   -.131E-02 0.123E-02 0.109E-02
   -.299E+01 -.179E+01 -.437E+01   0.639E-12 0.853E-13 -.888E-14   0.301E+01 0.178E+01 0.439E+01   -.816E-02 0.711E-02 0.155E-01

 POSITION                                       TOTAL-FORCE (eV/Angst)
      1.80964      3.22907      5.24620         0.002167      0.003304      0.005403
      6.65225      5.30475     18.58333        -0.001349     -0.001003     -0.002816
      4.96614     13.77828      8.32098        -0.007155      0.004653      0.002615
      3.46148     10.29861     16.99188         0.002631     -0.000573     -0.004465
      7.80274      1.87121     20.42586        -0.001449     -0.001178      0.000340
     12.04164      3.46426     15.57643        -0.006120      0.001804     -0.001670
     20.35799      8.15820     18.49056        -0.003815     -0.001768     -0.002693
     13.54442     10.00291     16.92944         0.000569      0.001214      0.002164
      8.12614      8.19969     10.20517        -0.000742      0.001013      0.003002
      0.23373      2.88048     17.49941        -0.001265     -0.002243      0.002102
      6.18667     12.62345      4.45332        -0.007934     -0.001077     -0.003559
      4.74491      7.41972     10.55211         0.001924      0.003017      0.001115
      7.79898      4.24030      4.86721        -0.001478      0.009882     -0.001802
     18.26882      2.19050      0.37360         0.000279      0.002521      0.000225
     10.54779      7.76834     12.46601        -0.003775      0.002083      0.000746
     13.89159     16.41543      8.96095        -0.002883      0.002579      0.002173
      6.57668     20.30011      3.26657         0.011991      0.006377      0.007822
      2.49432      4.07992     16.05707        -0.004420     -0.004421      0.000916
      4.74987     10.91257      7.34892         0.005232     -0.000745      0.002692
      2.39416     10.81996     20.27198         0.000095     -0.001801      0.001338
     10.43191      2.27358      7.73470        -0.000890      0.003085     -0.001626
     12.46240      2.01676      0.25804         0.001027      0.001557     -0.001580
     17.13887     13.44079     10.70781        -0.000939      0.001983      0.003035
      9.65916      0.90532     12.69793        -0.005228     -0.001015      0.003021
      0.11498      2.08981      8.59971        -0.000222     -0.000930     -0.002953
      9.39285      5.95293     17.89147         0.003210      0.000269      0.003187
      1.99348     10.50398      8.35482         0.002395     -0.001818      0.000223
      2.24546     15.53994      3.05374         0.000291      0.001803     -0.003862
     15.01025      2.05349      5.82943         0.000464      0.000513     -0.000271
     16.96226      1.60763     15.28451        -0.000446      0.003050     -0.002629
      9.76224      7.59156      6.15571         0.004255     -0.000420      0.004396
     16.74369     15.01671     18.86049        -0.004541     -0.000184      0.005759
      3.48350     20.34906      7.01479        -0.003750      0.000060      0.002076
      1.80316      2.10967     20.23679        -0.003635      0.004107      0.003711
      5.50190     13.75111      1.76662        -0.002336      0.003765      0.002393
      2.36738      0.28448     17.74973        -0.000701     -0.006147      0.021211
     13.29488      0.20383      6.95290         0.002665     -0.001205     -0.001447
     17.58286      5.43163     20.00712        -0.000534     -0.001682     -0.002020
     20.06398     18.16450      7.97507        -0.000118      0.001536      0.004261
     20.20353     17.15139     17.51294         0.000169      0.000721     -0.003289
      4.50073      2.77036      9.90606         0.001058      0.001259      0.000463
      5.31728      7.41688     19.95090        -0.001660     -0.000678      0.004585
      0.30252     12.87161      7.53193         0.000398     -0.009432      0.006381
     18.20218     14.96739      3.23297         0.002161     -0.001379     -0.001143
     12.28929      3.04865      5.31073        -0.003977      0.001408     -0.002836
     18.24122      0.02774     12.08681         0.000656      0.000141      0.002201
     12.71638      9.26555     11.01790         0.002877      0.000455     -0.001059
     15.45595     12.10345     16.89848        -0.001801      0.000619      0.001123
      5.45630     12.43392     14.99041         0.007298     -0.004971      0.005877
      3.15586     12.17320      5.38220         0.001355      0.000298      0.001042
      1.75450     13.39798     15.51241        -0.002968      0.004090     -0.004675
      1.94991     15.53186     12.96795         0.004169     -0.002112      0.002358
     18.35608     10.38581      2.27137         0.000648      0.000711     -0.000428
     15.03106      3.42685      8.57306         0.000307      0.000641      0.001719
     11.10284     10.65310      8.02341        -0.000442      0.003012     -0.003516
     17.00339     18.63818     15.49700        -0.001306      0.000738      0.000493
     10.28369      2.03862     18.39534        -0.001674     -0.002459      0.000194
      7.98397      2.13705     10.46212         0.001070      0.002645     -0.004302
      3.26876     20.19559      3.07775        -0.002907     -0.003390      0.002670
      5.25543     18.31508     15.68497        -0.004310     -0.006390     -0.003387
[...]
     20.29166     20.37156     15.27037         0.001876     -0.000608      0.004226
      0.12133     10.14896      5.11454        -0.001346      0.001413      0.002982
      0.01393     10.30835     15.45857        -0.000141      0.001516     -0.000806
     10.00299      0.07544      5.15076         0.003010      0.002377      0.003334
     10.26941      0.08330     15.46360        -0.004098      0.002794     -0.001692
     10.44903     10.31643      5.14456        -0.000850     -0.002385     -0.001184
     10.26622      9.95779     15.30407         0.001016      0.000498      0.004812
      0.09553      5.12249     20.42359        -0.002682      0.004859     -0.004542
      0.05182      5.10644     10.22792         0.000346      0.001829     -0.000740
     20.28868     15.36465      0.26276        -0.002192     -0.000412     -0.001167
     20.24531     15.24520     10.08781         0.006653     -0.000271      0.000976
      9.98465      5.10621      0.14438         0.002804      0.000400      0.003054
     10.08559      5.04962     10.13138         0.006622      0.002310     -0.001122
     10.38699     15.40877      0.12518        -0.002166     -0.000323      0.000809
     10.20389     15.49493     10.11517        -0.000437     -0.001410      0.001509
    total drift:                                0.008192     -0.004795      0.037272

  FREE ENERGIE OF THE ION-ELECTRON SYSTEM (eV)
  free  energy   TOTEN  =     -1757.21077598 eV

  energy  without entropy=    -1757.21077598  energy(sigma->0) =    -1757.21077598

 reached required accuracy - stopping structural energy minimisation

 total charge

# of ion       s       p       d       tot
    1        0.083   0.145   0.000   0.228
    2        0.083   0.142   0.000   0.224
    3        0.083   0.143   0.000   0.226
    4        0.082   0.141   0.000   0.224
    5        0.078   0.132   0.000   0.210
    6        0.084   0.150   0.000   0.235
    7        0.077   0.130   0.000   0.206
    8        0.077   0.128   0.000   0.205
    9        0.077   0.130   0.000   0.206
   10        0.079   0.134   0.000   0.214
   11        0.097   0.175   0.000   0.272
   12        0.080   0.136   0.000   0.216
   13        0.077   0.135   0.000   0.212
   14        0.085   0.146   0.000   0.231
   15        0.078   0.130   0.000   0.208
   16        0.080   0.135   0.000   0.215
   17        0.079   0.135   0.000   0.214
   18        0.090   0.162   0.000   0.252
   19        0.084   0.146   0.000   0.230
   20        0.082   0.145   0.000   0.228
   21        0.081   0.136   0.000   0.217
   22        0.078   0.131   0.000   0.209
   23        0.081   0.138   0.000   0.219
   24        0.084   0.151   0.000   0.235
   25        0.077   0.132   0.000   0.208
   26        0.091   0.165   0.000   0.257
   27        0.084   0.147   0.000   0.231
   28        0.085   0.144   0.000   0.228
   29        0.080   0.137   0.000   0.217
   30        0.080   0.136   0.000   0.215
   31        0.078   0.136   0.000   0.214
   32        0.082   0.139   0.000   0.222
   33        0.078   0.132   0.000   0.209
   34        0.087   0.154   0.000   0.241
   35        0.083   0.143   0.000   0.225
   36        0.083   0.137   0.000   0.220
   37        0.082   0.142   0.000   0.223
   38        0.092   0.165   0.000   0.257
   39        0.085   0.145   0.000   0.230
   40        0.074   0.123   0.000   0.197
   41        0.084   0.146   0.000   0.230
   42        0.083   0.143   0.000   0.226
   43        0.082   0.135   0.000   0.218
   44        0.086   0.149   0.000   0.235
   45        0.091   0.162   0.000   0.253
   46        0.083   0.143   0.000   0.226
   47        0.090   0.160   0.000   0.249
   48        0.085   0.147   0.000   0.232
   49        0.087   0.151   0.000   0.238
   50        0.083   0.143   0.000   0.226
   51        0.083   0.146   0.000   0.229
   52        0.087   0.150   0.000   0.238
   53        0.087   0.151   0.000   0.238
   54        0.080   0.138   0.000   0.219
   55        0.082   0.145   0.000   0.227
   56        0.081   0.139   0.000   0.220
   57        0.085   0.149   0.000   0.234
   58        0.086   0.148   0.000   0.234
   59        0.075   0.126   0.000   0.201
   60        0.090   0.156   0.000   0.246
[...]
  402        0.969   1.375   0.000   2.344
  403        0.969   1.376   0.000   2.346
  404        0.970   1.381   0.000   2.351
  405        0.969   1.376   0.000   2.345
  406        0.969   1.378   0.000   2.347
  407        0.971   1.381   0.000   2.352
  408        0.969   1.381   0.000   2.350
  409        0.969   1.381   0.000   2.350
  410        0.969   1.380   0.000   2.349
  411        0.970   1.377   0.000   2.347
  412        0.970   1.380   0.000   2.350
  413        0.971   1.382   0.000   2.352
  414        0.970   1.380   0.000   2.350
  415        0.969   1.374   0.000   2.344
  416        0.970   1.378   0.000   2.348
tot        306.892 551.786   0.183 858.861