 vasp.5.4.4.18Apr17-6-g9f103f2a35 (build Apr 27 2017 19:33:31) gamma-only

 executed on       CrayXC-Intel16 date 2019.09.09  13:40:35

 INCAR:
 POTCAR:    PAW_PBE Li 17Jan2003
 POTCAR:    PAW_PBE I 08Apr2002
 POTCAR:    PAW_PBE S 06Sep2000
 POTCAR:    PAW_PBE P 06Sep2000

 POTCAR:    PAW_PBE Li 17Jan2003
   VRHFIN =Li: s1p0

   TITEL  = PAW_PBE Li 17Jan2003
   POMASS =    7.010; ZVAL   =    1.000    mass and valenz
   ENMAX  =  140.000; ENMIN  =  100.000 eV

 POTCAR:    PAW_PBE I 08Apr2002
   VRHFIN =I : s2p5

   TITEL  = PAW_PBE I 08Apr2002
   POMASS =  126.904; ZVAL   =    7.000    mass and valenz
   ENMAX  =  175.647; ENMIN  =  131.735 eV

 POTCAR:    PAW_PBE S 06Sep2000
   VRHFIN =S : s2p4

   TITEL  = PAW_PBE S 06Sep2000
   POMASS =   32.066; ZVAL   =    6.000    mass and valenz
   ENMAX  =  258.689; ENMIN  =  194.016 eV

 POTCAR:    PAW_PBE P 06Sep2000
   VRHFIN =P : s2p3

   TITEL  = PAW_PBE P 06Sep2000
   POMASS =   30.974; ZVAL   =    5.000    mass and valenz
   ENMAX  =  255.040; ENMIN  =  191.280 eV

 Optimization of the real space projectors (new method)

 maximal supplied QI-value         = 18.33
 optimisation between [QCUT,QGAM] = [  8.43, 17.05] = [ 19.91, 81.38] Ry
 Optimized for a Real-space Cutoff    1.60 Angstroem

   l    n(q)    QCUT    max X(q) W(low)/X(q) W(high)/X(q)  e(spline)
   0      8     8.432    33.825    0.85E-04    0.69E-04    0.12E-06
   0      8     8.432     8.944    0.64E-04    0.57E-04    0.91E-07
   1      8     8.432     4.214    0.51E-04    0.11E-03    0.64E-07
 Optimization of the real space projectors (new method)

[...]

   l    n(q)    QCUT    max X(q) W(low)/X(q) W(high)/X(q)  e(spline)
   0      9     8.532   187.594    0.67E-04    0.16E-04    0.31E-06
   0      9     8.532   164.243    0.66E-04    0.15E-04    0.31E-06
   1      8     8.532    67.533    0.89E-04    0.21E-03    0.25E-06
   1      8     8.532    50.729    0.87E-04    0.20E-03    0.25E-06
 Optimization of the real space projectors (new method)

 maximal supplied QI-value         = 19.84
 optimisation between [QCUT,QGAM] = [  8.53, 17.06] = [ 20.39, 81.54] Ry
 Optimized for a Real-space Cutoff    1.75 Angstroem

   l    n(q)    QCUT    max X(q) W(low)/X(q) W(high)/X(q)  e(spline)
   0      9     8.532   160.924    0.60E-04    0.18E-04    0.30E-06
   0      9     8.532   130.086    0.59E-04    0.18E-04    0.30E-06
   1      8     8.532    74.434    0.88E-04    0.20E-03    0.24E-06
   1      8     8.532    49.120    0.85E-04    0.20E-03    0.24E-06

  PAW_PBE Li 17Jan2003                  :
  PAW_PBE I 08Apr2002                   :
  PAW_PBE S 06Sep2000                   :
  PAW_PBE P 06Sep2000                   :

 POSCAR: Li192 P32 S160 I32
  positions in direct lattice
  velocities in cartesian coordinates
 exchange correlation table for  LEXCH =       14
   RHO(1)=    0.500       N(1)  =     2000
   RHO(2)=  100.500       N(2)  =     4000

 ion  position               nearest neighbor table
   1  0.890  0.977  0.975- 353 2.39 271 2.50 262 2.51 208 2.88 397 3.06
   2  0.911  0.005  0.419- 354 2.39 237 2.49 261 2.51 207 2.89  94 3.12  86 3.30
   3  0.113  0.493  0.004- 355 2.35 283 2.44 274 2.45 395 3.00  95 3.24  42 3.28
   4  0.992  0.504  0.389- 356 2.33 225 2.43 239 2.44 387 3.00 140 3.25
   5  0.419  0.995  0.922- 357 2.38 234 2.51 258 2.56 204 2.82  89 3.24
   6  0.486  0.888  0.486- 358 2.37 303 2.44 292 2.50 203 3.00 408 3.02  73 3.02 142 3.22
   7  0.484  0.519  0.115- 359 2.35 255 2.44 241 2.49 211 2.99 391 3.02  91 3.14
   8  0.385  0.520  0.515- 360 2.37 259 2.46 266 2.50 212 2.96 396 3.00  75 3.07
   9  0.235  0.611  0.279- 371 2.32 331 2.44 339 2.45 411 2.92 195 3.01  99 3.05  25 3.26
  10  0.334  0.497  0.832- 372 2.40 236 2.51 260 2.57 202 2.80  26 3.27
  11  0.334  0.997  0.326- 369 2.40 233 2.54 257 2.60 203 2.99  97 3.23  73 3.30
  12  0.337  0.082  0.758- 370 2.40 330 2.49 234 2.54 210 2.90 106 3.08
  13  0.668  0.499  0.336- 375 2.41 277 2.52 229 2.57 199 2.83
  14  0.725  0.615  0.765- 376 2.36 344 2.43 336 2.48 112 2.96 200 2.97 416 3.01
  15  0.636  0.988  0.237- 373 2.34 231 2.44 253 2.45 389 2.97 149 3.16 223 3.21
  16  0.670  0.086  0.742- 374 2.38 342 2.49 254 2.56 198 2.86 102 3.13
  17  0.058  0.249  0.351- 361 2.40 297 2.48 309 2.88 193 2.94 133 3.03 345 3.04
  18  0.091  0.246  0.671- 362 2.41 338 2.52 314 2.53 218 2.86  34 3.11 134 3.21
  19  0.083  0.831  0.254- 363 2.38 227 2.48 347 2.50 219 2.93 155 3.15
  20  0.111  0.772  0.725- 364 2.30 340 2.40 348 2.42 412 2.89 220 2.95  68 3.01
  21  0.513  0.236  0.365- 365 2.35 305 2.44 301 2.46 406 3.02 197 3.10  53 3.14 129 3.25
  22  0.420  0.244  0.670- 366 2.38 290 2.50 322 2.59 210 2.84
  23  0.415  0.835  0.246- 367 2.41 243 2.54 323 2.54 203 3.01  55 3.12
  24  0.478  0.707  0.648- 368 2.34 320 2.53 292 2.65 212 2.79  72 2.92  75 2.98 408 3.08  56 3.28

  25  0.334  0.499  0.335- 371 2.41 259 2.50 235 2.53 201 2.81 169 3.13   9 3.26
  26  0.174  0.495  0.841- 372 2.38 226 2.48 274 2.54 196 2.87 148 3.10  10 3.27
  27  0.165  0.002  0.163- 369 2.39 249 2.46 281 2.49 219 2.95 171 3.02
  28  0.163  0.078  0.757- 370 2.40 338 2.50 250 2.61 194 2.82  98 3.17
  29  0.750  0.385  0.246- 375 2.32 325 2.43 349 2.45 413 2.98 111 3.29 151 3.29 221 3.43
  30  0.861  0.516  0.773- 376 2.36 240 2.43 246 2.49 388 3.04 152 3.11 174 3.22
  31  0.863  0.009  0.234- 373 2.35 237 2.44 247 2.47 385 2.97 101 3.08 213 3.08
  32  0.835  0.921  0.754- 374 2.42 328 2.53 248 2.56 208 2.82
  33  0.925  0.242  0.158- 361 2.40 293 2.52 325 2.70 213 2.80  65 3.11
  34  0.023  0.366  0.736- 362 2.36 246 2.47 226 2.48 218 2.99 388 3.00  18 3.11
  35  0.016  0.725  0.365- 363 2.37 299 2.46 311 2.46 404 3.00 195 3.01  51 3.08
  36  0.891  0.750  0.752- 364 2.29 336 2.39 328 2.41 416 2.86 136 3.21  68 3.28
  37  0.521  0.267  0.140- 365 2.35 317 2.45 289 2.46 221 3.02 405 3.02 129 3.09
  38  0.585  0.256  0.674- 366 2.39 318 2.53 342 2.58 222 2.85 158 3.24
  39  0.583  0.669  0.252- 367 2.41 255 2.56 343 2.60 199 2.83 131 3.29
  40  0.505  0.833  0.839- 368 2.40 304 2.47 232 2.49 204 2.89 132 2.99 160 3.28
  41  0.908  0.582  0.504- 356 2.38 311 2.47 263 2.47 216 2.83  88 3.07
  42  0.003  0.582  0.928- 355 2.31 240 2.47 312 2.51  52 2.80 196 2.94  80 3.20   3 3.28
  43  0.916  0.002  0.587- 354 2.35 248 2.46 272 2.48 214 2.83  77 3.11
  44  0.983  0.114  0.011- 353 2.34 310 2.42 313 2.43 401 2.96  85 3.00 213 3.15 165 3.24  93 3.27
                            78 3.27
  45  0.611  0.475  0.514- 360 2.37 277 2.46 288 2.48 222 2.97 400 3.01 144 3.07
  46  0.573  0.421  0.008- 359 2.32 278 2.51 302 2.55 181 2.81 221 2.96 143 3.13
  47  0.526  0.017  0.387- 358 2.38 231 2.43 233 2.51 197 2.91  90 2.92 389 2.99
  48  0.581  0.007  0.913- 357 2.35 232 2.50 280 2.54 198 2.85
  49  0.006  0.362  0.243- 361 2.33 225 2.40 245 2.45 387 2.99 153 3.20
  50  0.082  0.246  0.838- 362 2.41 346 2.58 298 2.58 194 2.86
  51  0.084  0.666  0.243- 363 2.39 251 2.47 339 2.55 195 2.92  35 3.08
  52  0.014  0.681  0.834- 364 2.33 240 2.53 312 2.55  42 2.80 196 2.88 156 3.20 136 3.22
  53  0.579  0.162  0.248- 365 2.40 341 2.52 253 2.53 197 2.85  21 3.14
  54  0.475  0.364  0.766- 366 2.36 230 2.44 242 2.48 202 2.93 392 2.98  70 3.03
  55  0.488  0.769  0.363- 367 2.35 307 2.45 303 2.48 408 2.98 203 3.08  23 3.12
  56  0.513  0.653  0.795- 368 2.39 236 2.47 256 2.81 200 2.86 160 3.26  24 3.28
  57  0.165  0.171  0.492- 378 2.40 282 2.50 314 2.54 193 2.88 185 3.25
  58  0.247  0.162  0.925- 377 2.40 330 2.50 258 2.55 194 2.86 177 3.30
  59  0.263  0.785  0.392- 380 2.36 347 2.40 331 2.53 116 2.98 203 2.99 411 3.01 187 3.25
  60  0.138  0.758  0.029- 379 2.35 315 2.42 300 2.52 163 2.99 219 2.99 403 3.02 188 3.18
  61  0.752  0.168  0.581- 382 2.40 342 2.48 286 2.55 214 2.88 182 3.20
  62  0.733  0.264  0.116- 381 2.36 341 2.47 325 2.49 413 2.99 221 2.99 181 3.03
  63  0.825  0.744  0.588- 384 2.42 296 2.51 328 2.61 216 2.87 184 3.24
  64  0.672  0.744  0.913- 383 2.42 304 2.51 352 2.59 200 2.85
  65  0.898  0.257  0.307- 361 2.38 333 2.51 205 2.81 325 2.86  33 3.11
  66  0.918  0.255  0.831- 362 2.41 310 2.60 334 2.60 206 2.90
  67  0.913  0.672  0.247- 363 2.39 239 2.51 335 2.57 215 2.83 135 3.23
  68  0.994  0.834  0.662- 364 2.38 248 2.46 296 2.47 220 2.88  20 3.01  36 3.28
  69  0.416  0.330  0.250- 365 2.40 321 2.57 241 2.60 201 2.85
  70  0.412  0.247  0.833- 366 2.41 306 2.49 330 2.51 202 2.81  54 3.03 130 3.24
  71  0.482  0.730  0.137- 367 2.38 291 2.47 319 2.48 211 2.98 407 3.03 159 3.18
  72  0.502  0.846  0.670- 368 2.39 244 2.42 292 2.59 224 2.83  24 2.92 160 3.10
  73  0.387  0.998  0.478- 358 2.37 257 2.44 268 2.45 394 2.98   6 3.02 203 3.22  11 3.30
  74  0.525  0.887  0.014- 357 2.37 304 2.45 291 2.46 407 2.99 223 3.00  81 3.09  89 3.28
  75  0.506  0.579  0.583- 360 2.34 256 2.46 320 2.53 212 2.91  24 2.98   8 3.07
  76  0.587  0.583  0.003- 359 2.39 319 2.47 287 2.50 200 2.89  83 3.15
  77  0.987  0.115  0.515- 354 2.36 309 2.47 314 2.48 402 3.00 214 3.04  43 3.11
  78  0.018  0.020  0.885- 353 2.38 238 2.44 228 2.47 194 2.92  93 2.95 386 2.98  44 3.27
  79  0.077  0.585  0.501- 356 2.36 316 2.50 284 2.52 195 2.89  96 3.23
  80  0.990  0.580  0.084- 355 2.40 251 2.49 315 2.54 215 2.85  42 3.20
  81  0.587  0.007  0.082- 357 2.36 285 2.47 253 2.52 223 2.83  74 3.09 141 3.28  89 3.30
  82  0.477  0.024  0.612- 358 2.40 244 2.47 254 2.49 210 2.93 390 3.05  90 3.25
  83  0.511  0.514  0.888- 359 2.35 230 2.44 236 2.46 392 2.96  76 3.15 200 3.20  91 3.30
  84  0.508  0.581  0.420- 360 2.40 235 2.51 307 2.55 199 2.82
  85  0.981  0.009  0.113- 353 2.38 247 2.46 249 2.47 213 2.97  44 3.00 385 3.02 137 3.27
  86  0.073  0.001  0.421- 354 2.32 227 2.54 275 2.59 105 2.78 193 2.85 138 3.20   2 3.30
  87  0.885  0.484  0.988- 355 2.36 264 2.44 269 2.48 399 2.98 139 3.11 206 3.12 190 3.27
  88  0.983  0.518  0.617- 356 2.36 246 2.44 252 2.49 388 2.99 216 3.06  41 3.07 136 3.27
  89  0.426  0.995  0.080- 357 2.31 243 2.46 267 2.48  97 2.76 209 2.94 141 3.05   5 3.24  74 3.28
                            81 3.30
  90  0.528  0.115  0.491- 358 2.38 318 2.42 305 2.51  47 2.92 197 2.97 406 3.02  82 3.25
  91  0.418  0.590  0.995- 359 2.38 308 2.49 260 2.51 211 2.90   7 3.14  83 3.30
  92  0.489  0.419  0.417- 360 2.38 229 2.51 301 2.52 201 2.85
  93  0.115  0.026  0.991- 353 2.37 281 2.42 276 2.48 194 2.94  78 2.95 393 2.98  44 3.27
  94  0.976  0.886  0.489- 354 2.38 299 2.46 296 2.48 404 3.01 207 3.02   2 3.12
  95  0.000  0.415  0.083- 355 2.36 293 2.48 245 2.50 217 2.81   3 3.24
  96  0.078  0.427  0.509- 356 2.33 297 2.51 273 2.51 185 2.84 218 2.91  79 3.23 140 3.26
  97  0.326  0.014  0.169- 369 2.31 267 2.50 243 2.55  89 2.76 209 2.84  11 3.23 171 3.27
  98  0.166  0.924  0.742- 370 2.37 348 2.49 228 2.56 220 2.84  28 3.17
  99  0.165  0.493  0.339- 371 2.41 225 2.53 273 2.53 195 2.91   9 3.05 169 3.25
 100  0.330  0.504  0.668- 372 2.38 242 2.50 266 2.59 212 2.82
 101  0.752  0.086  0.168- 373 2.39 285 2.47 341 2.48 213 2.86  31 3.08
 102  0.742  0.021  0.860- 374 2.33 262 2.43 280 2.46 397 2.98  16 3.13 198 3.17
 103  0.834  0.499  0.329- 375 2.39 263 2.52 239 2.58 205 2.83
[...]
   -.744E-02 0.126E+01 0.130E+01   -.399E+00 -.111E+01 -.148E+01   0.407E+00 -.153E+00 0.196E+00   -.131E-03 -.116E-04 -.639E-04
   -.171E+01 -.152E+01 -.154E+00   0.191E+01 0.133E+01 -.361E+00   -.203E+00 0.183E+00 0.522E+00   0.108E-03 0.106E-03 -.108E-03
   0.189E+01 0.324E+01 0.166E+01   -.155E+01 -.285E+01 -.122E+01   -.324E+00 -.374E+00 -.448E+00   0.146E-03 -.746E-04 -.752E-05
   0.149E+01 0.162E+01 -.380E+01   -.953E+00 -.179E+01 0.357E+01   -.539E+00 0.178E+00 0.225E+00   0.761E-04 -.646E-04 0.113E-03
   -.985E+00 -.798E+01 0.195E+01   0.999E+00 0.830E+01 -.173E+01   -.853E-03 -.325E+00 -.202E+00   -.267E-04 -.173E-03 0.543E-04
   0.912E+01 -.754E+00 -.314E+01   -.931E+01 0.603E+00 0.281E+01   0.199E+00 0.148E+00 0.325E+00   0.556E-04 -.660E-04 -.540E-04
   0.724E+01 -.255E+01 0.295E+01   -.748E+01 0.230E+01 -.260E+01   0.236E+00 0.252E+00 -.350E+00   0.128E-03 -.182E-05 0.720E-04
   0.809E+00 -.258E+01 -.425E+01   -.113E+01 0.277E+01 0.401E+01   0.321E+00 -.191E+00 0.240E+00   -.934E-04 0.652E-04 0.526E-04
   0.966E+00 0.258E+01 -.194E+01   -.529E+00 -.245E+01 0.235E+01   -.434E+00 -.138E+00 -.404E+00   0.131E-03 -.310E-05 0.144E-04
   -.876E+00 0.765E+01 0.251E+01   0.586E+00 -.796E+01 -.221E+01   0.286E+00 0.317E+00 -.298E+00   -.644E-04 0.128E-03 -.977E-05
   -.379E+01 0.148E+01 0.824E+01   0.350E+01 -.113E+01 -.844E+01   0.289E+00 -.348E+00 0.191E+00   -.215E-04 -.351E-06 0.695E-04
   -.762E+01 0.232E+01 -.129E+01   0.796E+01 -.215E+01 0.119E+01   -.334E+00 -.192E+00 0.707E-01   -.115E-03 0.188E-04 0.492E-04
   0.763E-01 -.144E+01 -.930E+01   -.298E+00 0.122E+01 0.955E+01   0.212E+00 0.220E+00 -.264E+00   0.136E-04 -.435E-04 -.102E-03
   -.283E-01 -.253E+01 -.184E+01   -.474E+00 0.230E+01 0.207E+01   0.501E+00 0.229E+00 -.241E+00   -.856E-04 0.295E-04 0.699E-04
   0.457E+00 -.967E+00 -.132E+01   -.865E+00 0.130E+01 0.124E+01   0.409E+00 -.328E+00 0.858E-01   -.134E-03 0.929E-04 0.127E-03
   0.346E+01 0.928E+00 0.156E-01   -.314E+01 -.115E+01 -.321E+00   -.325E+00 0.225E+00 0.314E+00   -.330E-04 -.584E-04 -.204E-03
   0.666E+00 0.649E+00 -.325E+01   -.296E+00 -.911E+00 0.287E+01   -.371E+00 0.254E+00 0.375E+00   0.129E-03 -.195E-03 0.624E-04
   -.280E+01 0.153E+01 -.321E+01   0.237E+01 -.215E+01 0.347E+01   0.446E+00 0.618E+00 -.253E+00   0.169E-04 -.673E-04 0.538E-04
   0.645E+00 -.357E+01 -.369E+00   -.248E+00 0.321E+01 -.781E-01   -.400E+00 0.352E+00 0.441E+00   0.797E-04 0.883E-04 -.765E-04
   0.893E-02 0.910E+01 -.433E+00   0.265E+00 -.932E+01 0.214E+00   -.272E+00 0.220E+00 0.217E+00   0.855E-04 -.393E-05 -.394E-04
   0.727E+01 0.897E+00 -.199E+01   -.751E+01 -.603E+00 0.182E+01   0.252E+00 -.296E+00 0.174E+00   0.555E-04 0.717E-04 -.501E-04
   0.211E+01 -.183E+01 -.494E+01   -.245E+01 0.252E+01 0.439E+01   0.350E+00 -.707E+00 0.542E+00   -.171E-04 0.519E-04 0.359E-04
   -.361E+01 -.858E+00 -.850E+01   0.325E+01 0.610E+00 0.871E+01   0.354E+00 0.236E+00 -.205E+00   -.707E-04 -.667E-04 -.506E-04
   -.106E+00 -.328E+01 -.445E+00   -.286E+00 0.291E+01 0.906E+00   0.399E+00 0.373E+00 -.463E+00   -.120E-03 0.791E-04 0.691E-04
   -.122E+01 0.861E+01 -.434E+00   0.111E+01 -.887E+01 0.638E+00   0.894E-01 0.262E+00 -.184E+00   -.870E-04 0.116E-03 0.782E-05
   0.139E+01 0.329E+01 -.427E+00   -.172E+01 -.306E+01 0.720E-02   0.327E+00 -.227E+00 0.417E+00   -.863E-04 -.128E-03 -.139E-03
   -.914E+00 -.225E+01 -.182E+01   0.412E+00 0.248E+01 0.160E+01   0.498E+00 -.219E+00 0.223E+00   -.820E-04 0.101E-03 0.512E-05
   -.495E+01 -.194E+01 0.903E+00   0.444E+01 0.228E+01 -.146E+01   0.514E+00 -.336E+00 0.567E+00   -.178E-04 0.647E-04 -.154E-04
   0.131E+01 -.330E+00 -.207E+01   -.160E+01 0.771E+00 0.196E+01   0.301E+00 -.436E+00 0.118E+00   -.677E-04 0.938E-04 0.115E-03
   0.227E+01 0.738E+01 -.877E+00   -.184E+01 -.759E+01 0.744E+00   -.441E+00 0.220E+00 0.137E+00   0.973E-04 0.151E-03 -.266E-04
   0.202E+01 -.366E+01 0.783E+01   -.183E+01 0.321E+01 -.814E+01   -.183E+00 0.452E+00 0.305E+00   -.636E-05 -.645E-04 0.243E-03
   -.227E+01 -.517E+01 -.196E+01   0.195E+01 0.549E+01 0.162E+01   0.304E+00 -.313E+00 0.369E+00   0.186E-04 -.664E-04 -.251E-03
   -.273E+00 -.181E+01 0.443E+01   0.678E+00 0.202E+01 -.395E+01   -.403E+00 -.214E+00 -.479E+00   0.791E-04 0.193E-03 0.786E-04
   0.521E+01 -.591E+00 -.128E+01   -.485E+01 0.101E+01 0.146E+01   -.357E+00 -.426E+00 -.181E+00   -.532E-04 -.694E-05 0.117E-03
   -.114E+01 -.380E+01 -.811E+01   0.891E+00 0.340E+01 0.834E+01   0.251E+00 0.407E+00 -.240E+00   0.490E-04 -.168E-03 -.493E-04
   -.777E+01 -.160E+01 -.408E+01   0.810E+01 0.130E+01 0.367E+01   -.319E+00 0.293E+00 0.416E+00   -.132E-03 -.218E-04 -.108E-03
[...]
   0.598E+01 -.794E+00 0.697E+00   -.610E+01 0.520E+00 -.836E+00   0.129E+00 0.267E+00 0.131E+00   0.181E-02 0.918E-03 0.131E-02
   0.142E+01 0.400E+01 0.200E+00   -.125E+01 -.358E+01 -.448E+00   -.166E+00 -.404E+00 0.244E+00   0.102E-02 0.526E-03 -.716E-03
   -.164E+01 -.188E+01 0.505E+01   0.153E+01 0.207E+01 -.514E+01   0.121E+00 -.196E+00 0.851E-01   -.656E-03 -.359E-03 0.148E-02
   0.718E+01 0.771E-01 -.140E+01   -.714E+01 -.960E-01 0.136E+01   -.453E-01 0.423E-02 0.366E-01   0.167E-02 -.787E-03 -.121E-02
   -.762E+00 0.518E+01 -.471E+00   0.182E+00 -.517E+01 0.206E+00   0.572E+00 -.202E-01 0.251E+00   -.127E-02 0.750E-03 0.107E-02
   -.409E+01 -.970E+00 0.313E+01   0.450E+01 0.285E+00 -.329E+01   -.415E+00 0.698E+00 0.147E+00   -.191E-02 0.103E-02 -.351E-03
   -.343E+00 -.411E+01 0.596E+01   0.342E-01 0.416E+01 -.533E+01   0.295E+00 -.550E-01 -.614E+00   0.461E-04 0.724E-03 0.144E-02
   0.463E+01 0.240E+01 -.442E+01   -.444E+01 -.218E+01 0.436E+01   -.196E+00 -.238E+00 0.531E-01   0.216E-03 0.567E-03 -.118E-02
   -.216E+00 0.175E+01 -.244E+01   0.112E+00 -.183E+01 0.235E+01   0.925E-01 0.868E-01 0.995E-01   0.816E-05 0.519E-04 0.167E-03
   -.333E+01 -.398E+01 0.214E+01   0.348E+01 0.394E+01 -.217E+01   -.179E+00 0.888E-02 0.315E-01   -.150E-03 -.115E-02 0.100E-04
   0.298E+00 0.293E+01 -.240E+01   -.161E+00 -.335E+01 0.270E+01   -.139E+00 0.393E+00 -.316E+00   0.194E-03 0.118E-02 -.480E-03
   -.117E+01 0.288E+01 0.461E+01   0.113E+01 -.263E+01 -.451E+01   0.338E-01 -.287E+00 -.124E+00   0.289E-03 0.946E-03 0.112E-02
   0.214E+01 -.166E+01 0.109E+01   -.216E+01 0.158E+01 -.124E+01   0.272E-01 0.813E-01 0.138E+00   0.448E-04 -.783E-03 0.134E-03
   -.701E+00 -.153E+01 -.129E+01   0.745E+00 0.170E+01 0.115E+01   -.489E-01 -.172E+00 0.130E+00   -.445E-03 -.104E-02 0.287E-03
   -.751E+00 0.242E+01 -.212E+00   0.287E-12 0.790E-12 0.218E-12   0.768E+00 -.245E+01 0.183E+00   0.857E-04 0.850E-02 0.445E-02

 POSITION                                       TOTAL-FORCE (eV/Angst)
     18.18914     19.96205     19.92726        -0.004731      0.002502      0.005887
     18.61989      0.10529      8.56731        -0.000679      0.002855      0.007753
      2.31368     10.07550      0.07393         0.009850     -0.039339      0.028958
     20.27602     10.30246      7.94921         0.012634      0.004400     -0.002480
      8.56411     20.33168     18.83271         0.002913      0.010413     -0.009233
      9.92599     18.13890      9.92072        -0.006178      0.006386      0.004013
      9.88116     10.60803      2.34103        -0.006558     -0.000326      0.003165
      7.87487     10.62757     10.52707        -0.002147      0.005295      0.000203
      4.80983     12.47758      5.69386         0.005423      0.009856     -0.000202
      6.82248     10.15581     16.99458        -0.003883      0.005167      0.001058
      6.81659     20.37983      6.66152        -0.006578     -0.002001      0.010741
      6.88206      1.68004     15.48699        -0.002278     -0.003657      0.010768
     13.64683     10.19634      6.85638         0.004386      0.002422      0.000638
     14.80797     12.56510     15.64114        -0.005614     -0.004146     -0.005455
     12.98781     20.19708      4.83896         0.007851     -0.001356     -0.005418
     13.68159      1.76465     15.15283        -0.002449      0.000143     -0.005211
      1.18223      5.08766      7.17768         0.034886      0.008128     -0.002834
      1.86906      5.03325     13.70373        -0.004515      0.004381      0.001731
      1.69675     16.98090      5.19707        -0.008536      0.002542     -0.008413
      2.27404     15.77726     14.82079         0.000050     -0.003252      0.008642
     10.48611      4.82630      7.46256         0.007268      0.008431      0.003876
      8.59037      4.98640     13.69046         0.000835     -0.002645      0.010611
      8.48946     17.05813      5.03319        -0.001232      0.007042     -0.003371
      9.77433     14.44102     13.24409         0.008419      0.002436      0.007727
      6.83450     10.19153      6.84308         0.000853     -0.000527      0.009197
      3.55836     10.12265     17.19098        -0.000940     -0.005138      0.007066
      3.37681      0.04553      3.33399         0.015787      0.007221     -0.002621
      3.32798      1.59305     15.46332         0.002292      0.007972     -0.001330
     15.31601      7.86666      5.01750         0.013129     -0.008099      0.014696
     17.59308     10.55202     15.80028         0.001702     -0.002967     -0.008163
     17.64264      0.18839      4.77877        -0.005048      0.001773     -0.000053
     17.06577     18.80903     15.40813        -0.002529      0.006663      0.000529
     18.90814      4.93910      3.23380         0.003139     -0.006572      0.004004
      0.46782      7.47222     15.03425        -0.004648      0.004461      0.000310
      0.33606     14.82379      7.45604         0.002248     -0.004929     -0.004592
     18.19587     15.32908     15.36348         0.004062     -0.019268     -0.023471
     10.63990      5.46226      2.85066        -0.009921      0.006178     -0.013626
     11.94779      5.23333     13.76779        -0.001740     -0.003009     -0.003109
     11.90349     13.66524      5.15761         0.000511      0.004442      0.005491
     10.30884     17.02051     17.15142        -0.002730      0.002419      0.008732
     18.55197     11.89500     10.29708        -0.000943     -0.007644     -0.000552
      0.06681     11.90101     18.96383         0.016169      0.006078      0.004562
     18.71082      0.03358     12.00219        -0.003170     -0.001499     -0.006493
     20.08788      2.32223      0.21736         0.001590     -0.000531     -0.002624
     12.49167      9.71022     10.49465         0.005362     -0.001925      0.004372
     11.69863      8.60415      0.16628         0.005717     -0.010988      0.000396
     10.73945      0.34721      7.90360        -0.007139     -0.011540      0.001960
     11.87075      0.13943     18.65768         0.006478      0.001838     -0.001517
      0.11299      7.38838      4.96609        -0.021626     -0.006880      0.019511
      1.67314      5.02709     17.12347        -0.004912      0.006131     -0.002810
      1.71165     13.61857      4.97494        -0.003647      0.008066     -0.003641
      0.28263     13.92111     17.03127         0.005995      0.009659      0.006427
     11.83975      3.30697      5.06481         0.007445      0.005306     -0.000152
      9.70262      7.42970     15.65651        -0.002015      0.001652      0.003745
      9.97285     15.70675      7.42570         0.002137     -0.005580     -0.005103
     10.48702     13.33813     16.24845        -0.014104      0.008638      0.023682
      3.37960      3.48651     10.05746         0.002294      0.002587      0.000405
      5.05002      3.31132     18.89236         0.002089     -0.006757      0.003036
      5.36456     16.03624      8.01984         0.005648      0.003093     -0.004641
      2.81903     15.49234      0.58271         0.009303     -0.001192      0.005167
[...]
      0.22162      5.29901     10.28256        -0.004289      0.008381     -0.015213
     20.32346     15.20985     20.33078         0.014115     -0.005763     -0.006592
     20.25404     15.13509     10.39376         0.003318      0.017785     -0.005472
     10.41153      5.28300     20.27772         0.003495     -0.011399     -0.004726
     10.04714      5.24204     10.41828        -0.007869     -0.015350      0.002469
     10.35102     15.19340     20.25198        -0.009029     -0.011340     -0.012240
     10.43439     15.19122     10.32837        -0.003032      0.013726     -0.012801
      5.09451      5.05883      4.97973        -0.014198     -0.006730      0.014934
      5.11951      4.90189     15.53469        -0.005754     -0.011619      0.000876
      5.15523     15.31767      5.10191        -0.011370      0.001551      0.003388
      5.10512     15.50132     15.34867        -0.028215     -0.027431      0.002168
     15.27423      4.89932      5.30313        -0.002277     -0.019482     -0.013622
     15.40116      5.04865     15.16625        -0.002745     -0.028736     -0.017896
     15.28442     15.50466      5.09940         0.007910     -0.004556     -0.011197
     15.33924     15.50949     15.33336        -0.005340      0.002584     -0.009507
    total drift:                                0.017140     -0.023242     -0.024270

  FREE ENERGIE OF THE ION-ELECTRON SYSTEM (eV)
  free  energy   TOTEN  =     -1762.10048447 eV

  energy  without entropy=    -1762.10048447  energy(sigma->0) =    -1762.10048447

 reached required accuracy - stopping structural energy minimisation

 total charge

# of ion       s       p       d       tot
    1        0.082   0.143   0.000   0.224
    2        0.082   0.142   0.000   0.224
    3        0.086   0.148   0.000   0.235
    4        0.088   0.150   0.000   0.238
    5        0.081   0.140   0.000   0.221
    6        0.085   0.149   0.000   0.234
    7        0.087   0.152   0.000   0.238
    8        0.085   0.149   0.000   0.234
    9        0.091   0.162   0.000   0.253
   10        0.080   0.137   0.000   0.217
   11        0.075   0.126   0.000   0.201
   12        0.081   0.139   0.000   0.221
   13        0.079   0.134   0.000   0.213
   14        0.087   0.153   0.000   0.239
   15        0.089   0.155   0.000   0.244
   16        0.082   0.142   0.000   0.224
   17        0.073   0.121   0.000   0.193
   18        0.081   0.138   0.000   0.218
   19        0.082   0.142   0.000   0.224
   20        0.095   0.173   0.000   0.267
   21        0.086   0.150   0.000   0.236
   22        0.080   0.138   0.000   0.218
   23        0.076   0.128   0.000   0.204
   24        0.084   0.147   0.000   0.231
   25        0.082   0.143   0.000   0.225
   26        0.083   0.144   0.000   0.227
   27        0.084   0.145   0.000   0.229
   28        0.080   0.137   0.000   0.216
   29        0.089   0.153   0.000   0.242
   30        0.082   0.140   0.000   0.222
   31        0.087   0.152   0.000   0.239
   32        0.079   0.134   0.000   0.213
   33        0.078   0.131   0.000   0.209
   34        0.084   0.147   0.000   0.231
   35        0.085   0.148   0.000   0.233
   36        0.096   0.170   0.000   0.266
   37        0.086   0.151   0.000   0.236
   38        0.078   0.134   0.000   0.212
   39        0.077   0.129   0.000   0.206
   40        0.084   0.145   0.000   0.229
   41        0.087   0.153   0.000   0.240
   42        0.089   0.157   0.000   0.247
   43        0.088   0.157   0.000   0.245
   44        0.090   0.159   0.000   0.250
   45        0.085   0.149   0.000   0.234
   46        0.085   0.148   0.000   0.233
   47        0.086   0.151   0.000   0.237
   48        0.083   0.144   0.000   0.228
   49        0.088   0.152   0.000   0.240
   50        0.075   0.127   0.000   0.202
   51        0.082   0.141   0.000   0.223
   52        0.085   0.148   0.000   0.233
   53        0.081   0.139   0.000   0.220
   54        0.087   0.154   0.000   0.241
   55        0.086   0.151   0.000   0.237
   56        0.076   0.130   0.000   0.206
   57        0.080   0.138   0.000   0.218
   58        0.079   0.136   0.000   0.215
   59        0.086   0.150   0.000   0.236
   60        0.087   0.153   0.000   0.241
[...]
  402        0.970   1.382   0.000   2.352
  403        0.971   1.381   0.000   2.352
  404        0.970   1.382   0.000   2.352
  405        0.970   1.383   0.000   2.353
  406        0.970   1.380   0.000   2.350
  407        0.970   1.380   0.000   2.350
  408        0.970   1.382   0.000   2.352
  409        0.969   1.381   0.000   2.350
  410        0.970   1.378   0.000   2.348
  411        0.970   1.381   0.000   2.351
  412        0.970   1.384   0.000   2.354
  413        0.970   1.381   0.000   2.351
  414        0.970   1.377   0.000   2.347
  415        0.970   1.374   0.000   2.344
  416        0.970   1.383   0.000   2.352
tot        307.162 552.566   0.179 859.908